Crypto/instances/samples/hf_n32/hf_n32_cnf03.sol
c DPLL-like Solver for max-min SAT
f file hf_n32_cnf03.cnf
p cnf 32 220
s max  220 12 -9 11 -10 -19 4 25 3 1 -2 -27 -15 14 -16 -13 -24 -23 -17 -18 8 7 5 -6 -28 -31 -20 -29 -22 -30 -32 -21 -26
s min  192 -12 19 -9 -11 -14 16 15 -32 -13 10 23 20 27 -22 8 -31 -21 24 28 -30 17 -29 26 18 25 1 2 -3 4 -5 -6 -7